NAME : rnd21_50.tsp.tsp.optbc.tour
TYPE : TOUR
DIMENSION : 50
TOUR_SECTION
1
25
15
4
44
12
9
28
38
16
23
46
20
32
3
29
19
43
49
22
26
31
36
30
8
5
11
24
47
35
21
10
17
39
2
48
50
18
37
13
42
40
34
6
41
33
45
27
14
7
-1